Geographic Exponential Decay
20 11 264 93 206 278 183 74 0 42 160 295 190 83 85 123 262 204 188 99 250
p edge 320 692
e 0 27 8.0
e 0 15 55.0
e 0 140 11.0
e 0 85 13.0
e 0 258 96.0
e 0 188 36.0
e 0 273 58.0
e 0 259 28.0
e 0 14 34.0
e 0 162 11.0
e 0 18 23.0
e 0 220 22.0
e 0 142 73.0
e 0 58 55.0
e 0 183 82.0
e 0 45 67.0
e 0 10 55.0
e 1 281 11.0
e 2 188 19.0
e 3 252 3.0
e 4 172 1.0
e 5 257 2.0
e 6 293 2.0
e 6 7 1.0
e 7 265 1.0
e 8 50 11.0
e 9 266 12.0
e 9 180 6.0
e 9 169 9.0
e 10 172 23.0
e 10 291 6.0
e 10 213 2.0
e 10 1 5.0
e 11 45 40.0
e 11 142 93.0
e 11 223 85.0
e 11 290 93.0
e 11 85 80.0
e 11 283 16.0
e 11 281 13.0
e 11 57 68.0
e 11 203 72.0
e 11 7 38.0
e 11 101 3.0
e 11 187 66.0
e 11 110 29.0
e 11 284 36.0
e 11 2 73.0
e 11 143 31.0
e 11 168 29.0
e 12 249 1.0
e 12 149 3.0
e 13 170 3.0
e 14 196 19.0
e 14 195 8.0
e 16 127 2.0
e 16 42 64.0
e 17 93 32.0
e 18 207 2.0
e 19 311 20.0
e 19 116 3.0
e 20 202 11.0
e 20 292 4.0
e 20 23 10.0
e 21 305 8.0
e 21 213 3.0
e 22 105 4.0
e 22 181 3.0
e 24 275 4.0
e 24 76 1.0
e 24 194 9.0
e 25 59 1.0
e 26 314 1.0
e 28 43 23.0
e 28 101 23.0
e 28 115 18.0
e 28 150 6.0
e 28 48 10.0
e 29 303 1.0
e 29 285 8.0
e 29 113 6.0
e 30 248 1.0
e 30 22 1.0
e 31 102 1.0
e 31 209 2.0
e 32 19 6.0
e 33 257 5.0
e 34 279 5.0
e 34 205 6.0
e 34 111 22.0
e 34 289 8.0
e 34 122 18.0
e 35 188 12.0
e 36 193 3.0
e 37 80 1.0
e 38 125 2.0
e 39 121 1.0
e 40 148 12.0
e 40 291 4.0
e 41 139 4.0
e 42 224 15.0
e 42 214 60.0
e 42 116 12.0
e 42 195 37.0
e 42 169 58.0
e 42 158 35.0
e 42 292 39.0
e 42 198 61.0
e 42 311 56.0
e 42 261 70.0
e 42 291 43.0
e 42 312 31.0
e 42 298 83.0
e 42 272 45.0
e 42 66 18.0
e 42 262 4.0
e 44 239 20.0
e 44 21 6.0
e 44 26 3.0
e 44 305 4.0
e 44 43 13.0
e 46 197 3.0
e 47 28 20.0
e 49 180 2.0
e 50 12 1.0
e 50 117 8.0
e 51 123 40.0
e 51 107 7.0
e 51 33 3.0
e 52 153 2.0
e 52 53 8.0
e 52 134 2.0
e 54 97 11.0
e 54 300 7.0
e 54 77 2.0
e 55 89 6.0
e 55 189 7.0
e 55 101 8.0
e 56 146 6.0
e 56 39 39.0
e 56 138 3.0
e 56 0 96.0
e 56 315 49.0
e 56 220 25.0
e 56 262 94.0
e 56 210 21.0
e 56 40 36.0
e 60 151 1.0
e 61 148 6.0
e 62 11 39.0
e 62 258 7.0
e 62 108 14.0
e 62 52 22.0
e 62 240 14.0
e 63 289 2.0
e 64 276 5.0
e 64 89 1.0
e 65 278 5.0
e 65 54 11.0
e 66 290 10.0
e 66 58 22.0
e 66 76 21.0
e 66 93 53.0
e 67 78 2.0
e 68 301 49.0
e 68 207 5.0
e 68 10 16.0
e 69 299 31.0
e 69 59 1.0
e 69 260 33.0
e 69 195 30.0
e 69 44 40.0
e 69 171 16.0
e 69 113 29.0
e 69 98 34.0
e 69 106 35.0
e 70 217 1.0
e 70 74 57.0
e 71 77 2.0
e 72 288 20.0
e 72 78 5.0
e 73 289 13.0
e 73 281 4.0
e 73 107 1.0
e 74 275 43.0
e 74 304 24.0
e 74 180 75.0
e 74 121 20.0
e 74 154 29.0
e 74 228 8.0
e 74 184 62.0
e 74 272 57.0
e 74 3 66.0
e 74 68 31.0
e 74 130 94.0
e 74 207 5.0
e 74 132 81.0
e 74 133 11.0
e 74 55 57.0
e 74 99 78.0
e 75 4 2.0
e 79 89 4.0
e 79 230 16.0
e 81 271 6.0
e 82 106 4.0
e 82 254 2.0
e 83 100 89.0
e 83 79 14.0
e 83 169 33.0
e 83 202 93.0
e 83 39 1.0
e 83 262 9.0
e 83 124 25.0
e 83 60 29.0
e 83 110 92.0
e 83 48 11.0
e 83 183 7.0
e 83 165 80.0
e 83 271 30.0
e 83 223 56.0
e 83 95 10.0
e 83 199 26.0
e 83 150 2.0
e 84 282 3.0
e 85 21 36.0
e 85 73 25.0
e 85 216 83.0
e 85 286 90.0
e 85 184 96.0
e 85 35 31.0
e 85 65 33.0
e 85 296 72.0
e 85 153 96.0
e 85 10 55.0
e 85 34 51.0
e 85 24 59.0
e 85 127 82.0
e 85 265 27.0
e 85 22 11.0
e 86 255 5.0
e 86 244 5.0
e 87 45 15.0
e 87 216 17.0
e 87 129 19.0
e 87 272 46.0
e 87 34 39.0
e 87 43 11.0
e 87 269 26.0
e 87 308 43.0
e 87 109 25.0
e 88 272 6.0
e 88 89 1.0
e 88 44 23.0
e 90 206 58.0
e 91 77 1.0
e 91 310 9.0
e 91 277 4.0
e 91 228 11.0
e 91 90 11.0
e 92 202 2.0
e 93 46 93.0
e 93 43 51.0
e 93 281 15.0
e 93 175 69.0
e 93 203 60.0
e 93 113 24.0
e 93 314 3.0
e 93 198 19.0
e 93 133 53.0
e 93 76 13.0
e 93 219 89.0
e 93 271 37.0
e 93 268 44.0
e 93 61 36.0
e 93 106 45.0
e 94 174 2.0
e 94 276 1.0
e 95 298 6.0
e 95 210 3.0
e 96 281 4.0
e 96 307 5.0
e 97 30 4.0
e 98 254 1.0
e 99 226 5.0
e 99 44 83.0
e 99 291 58.0
e 99 58 30.0
e 99 27 85.0
e 99 98 76.0
e 99 313 33.0
e 99 201 48.0
e 99 157 64.0
e 99 84 22.0
e 99 276 6.0
e 99 240 67.0
e 99 125 18.0
e 99 303 94.0
e 99 314 23.0
e 99 18 43.0
e 100 237 2.0
e 102 293 4.0
e 103 63 2.0
e 104 15 4.0
e 104 29 5.0
e 105 110 9.0
e 105 95 6.0
e 108 234 17.0
e 108 174 23.0
e 108 269 21.0
e 108 166 4.0
e 109 174 1.0
e 112 102 2.0
e 112 158 1.0
e 114 220 1.0
e 118 181 1.0
e 119 210 2.0
e 120 285 13.0
e 120 240 2.0
e 120 3 10.0
e 120 298 14.0
e 120 155 16.0
e 122 225 5.0
e 123 228 25.0
e 123 247 69.0
e 123 195 33.0
e 123 140 87.0
e 123 245 97.0
e 123 214 45.0
e 123 130 82.0
e 123 137 57.0
e 123 10 27.0
e 123 169 95.0
e 123 266 22.0
e 123 115 71.0
e 123 96 3.0
e 123 63 49.0
e 123 236 66.0
e 123 21 90.0
e 126 261 6.0
e 126 306 9.0
e 126 283 10.0
e 128 304 2.0
e 130 178 1.0
e 131 302 1.0
e 135 123 77.0
e 136 150 5.0
e 137 103 9.0
e 137 205 12.0
e 139 263 2.0
e 141 231 9.0
e 141 255 19.0
e 141 292 7.0
e 141 177 20.0
e 141 248 17.0
e 144 307 2.0
e 145 63 1.0
e 146 102 2.0
e 146 229 12.0
e 147 121 4.0
e 147 283 10.0
e 147 131 8.0
e 148 4 8.0
e 151 268 4.0
e 152 121 5.0
e 152 147 2.0
e 152 253 8.0
e 152 318 16.0
e 152 244 5.0
e 154 252 3.0
e 154 262 49.0
e 154 14 5.0
e 154 73 20.0
e 156 71 2.0
e 159 248 1.0
e 160 197 78.0
e 160 22 22.0
e 160 19 14.0
e 160 308 20.0
e 160 149 90.0
e 160 67 71.0
e 160 212 67.0
e 160 3 51.0
e 160 239 68.0
e 160 318 98.0
e 160 153 24.0
e 160 221 72.0
e 160 205 1.0
e 160 309 49.0
e 160 145 26.0
e 160 81 4.0
e 160 190 23.0
e 161 33 10.0
e 161 4 21.0
e 161 96 21.0
e 161 29 4.0
e 161 37 4.0
e 162 83 14.0
e 162 149 23.0
e 162 105 2.0
e 162 62 2.0
e 162 123 16.0
e 162 111 4.0
e 162 90 11.0
e 162 68 4.0
e 163 154 13.0
e 163 219 8.0
e 163 27 23.0
e 163 170 21.0
e 163 137 6.0
e 164 119 3.0
e 164 5 7.0
e 164 288 39.0
e 166 84 5.0
e 167 119 1.0
e 167 116 5.0
e 171 268 6.0
e 171 31 1.0
e 173 83 41.0
e 173 37 3.0
e 175 5 9.0
e 175 75 7.0
e 176 146 2.0
e 176 288 26.0
e 179 209 5.0
e 179 92 1.0
e 182 197 1.0
e 183 75 42.0
e 183 267 68.0
e 183 147 49.0
e 183 300 67.0
e 183 309 81.0
e 183 299 48.0
e 183 216 11.0
e 183 297 69.0
e 183 302 54.0
e 183 14 11.0
e 183 221 4.0
e 183 235 76.0
e 183 240 74.0
e 183 252 2.0
e 183 66 12.0
e 184 104 6.0
e 185 215 24.0
e 185 201 37.0
e 185 262 74.0
e 185 160 6.0
e 185 249 6.0
e 185 56 44.0
e 185 122 9.0
e 185 175 7.0
e 185 167 24.0
e 186 177 3.0
e 186 277 7.0
e 186 16 21.0
e 186 264 64.0
e 186 165 21.0
e 187 7 1.0
e 187 98 20.0
e 187 94 23.0
e 187 13 1.0
e 188 23 10.0
e 188 317 4.0
e 188 131 40.0
e 188 217 61.0
e 188 87 17.0
e 188 261 22.0
e 188 29 71.0
e 188 98 70.0
e 188 20 15.0
e 188 242 89.0
e 188 247 10.0
e 188 258 22.0
e 188 245 60.0
e 188 107 36.0
e 190 233 71.0
e 190 170 52.0
e 190 146 8.0
e 190 175 33.0
e 190 58 93.0
e 190 234 37.0
e 190 138 12.0
e 190 176 49.0
e 190 45 44.0
e 190 23 49.0
e 190 250 56.0
e 190 245 45.0
e 190 111 89.0
e 190 30 5.0
e 190 177 22.0
e 190 8 92.0
e 191 102 1.0
e 192 277 5.0
e 192 234 4.0
e 193 17 3.0
e 193 170 1.0
e 193 92 23.0
e 193 243 2.0
e 194 94 1.0
e 196 221 20.0
e 196 279 20.0
e 196 41 10.0
e 196 284 15.0
e 199 314 4.0
e 200 124 2.0
e 204 133 24.0
e 204 59 8.0
e 204 263 17.0
e 204 64 4.0
e 204 176 53.0
e 204 24 89.0
e 204 228 59.0
e 204 54 21.0
e 204 88 42.0
e 204 92 50.0
e 204 122 94.0
e 204 310 100.0
e 204 45 24.0
e 204 112 29.0
e 204 190 83.0
e 204 207 60.0
e 204 292 34.0
e 206 161 62.0
e 206 227 66.0
e 206 201 67.0
e 206 18 39.0
e 206 300 66.0
e 206 113 52.0
e 206 104 52.0
e 206 97 28.0
e 206 75 50.0
e 206 311 34.0
e 206 103 76.0
e 206 234 57.0
e 206 220 36.0
e 206 258 16.0
e 206 2 19.0
e 206 76 57.0
e 208 122 1.0
e 208 203 11.0
e 208 244 8.0
e 209 9 10.0
e 211 172 2.0
e 218 246 1.0
e 218 148 8.0
e 222 231 1.0
e 223 124 11.0
e 223 280 11.0
e 223 252 13.0
e 225 123 100.0
e 226 127 4.0
e 226 23 2.0
e 230 65 15.0
e 230 270 9.0
e 230 209 11.0
e 230 99 43.0
e 232 221 2.0
e 232 7 7.0
e 232 233 1.0
e 235 315 8.0
e 235 205 6.0
e 238 56 35.0
e 238 179 20.0
e 238 172 2.0
e 238 246 24.0
e 238 109 1.0
e 241 109 6.0
e 242 80 3.0
e 243 12 5.0
e 243 312 4.0
e 247 56 36.0
e 250 256 30.0
e 250 311 80.0
e 250 50 59.0
e 250 57 10.0
e 250 59 56.0
e 250 315 40.0
e 250 134 89.0
e 250 32 42.0
e 250 271 5.0
e 250 69 2.0
e 250 142 13.0
e 250 175 81.0
e 250 274 21.0
e 250 5 39.0
e 250 13 32.0
e 250 255 66.0
e 251 204 53.0
e 251 129 1.0
e 253 62 2.0
e 257 293 8.0
e 259 40 12.0
e 259 71 12.0
e 260 140 5.0
e 262 165 31.0
e 262 283 9.0
e 262 73 6.0
e 262 61 80.0
e 262 255 84.0
e 262 144 83.0
e 262 48 8.0
e 262 64 28.0
e 262 204 24.0
e 262 316 83.0
e 262 161 41.0
e 262 84 24.0
e 264 132 73.0
e 264 230 36.0
e 264 240 8.0
e 264 173 99.0
e 264 131 3.0
e 264 155 28.0
e 264 135 91.0
e 264 110 30.0
e 264 67 35.0
e 264 107 63.0
e 264 183 70.0
e 264 196 68.0
e 264 287 78.0
e 264 94 3.0
e 264 126 49.0
e 264 46 6.0
e 266 237 1.0
e 266 30 8.0
e 266 249 16.0
e 270 167 6.0
e 273 61 10.0
e 273 140 10.0
e 275 125 5.0
e 278 32 29.0
e 278 217 7.0
e 278 97 49.0
e 278 46 59.0
e 278 151 85.0
e 278 115 25.0
e 278 1 48.0
e 278 72 12.0
e 278 295 55.0
e 278 6 65.0
e 278 269 9.0
e 278 2 6.0
e 278 132 74.0
e 278 208 46.0
e 278 238 10.0
e 278 88 53.0
e 280 100 1.0
e 286 186 5.0
e 286 62 3.0
e 287 163 14.0
e 288 161 3.0
e 288 310 17.0
e 288 47 32.0
e 288 155 16.0
e 288 267 46.0
e 288 133 47.0
e 289 124 8.0
e 289 91 14.0
e 290 87 11.0
e 294 163 9.0
e 294 64 7.0
e 294 199 12.0
e 295 154 78.0
e 295 237 2.0
e 295 221 36.0
e 295 300 93.0
e 295 49 98.0
e 295 262 6.0
e 295 79 61.0
e 295 16 39.0
e 295 256 83.0
e 295 246 44.0
e 295 151 79.0
e 295 85 63.0
e 295 250 25.0
e 295 37 89.0
e 295 239 28.0
e 295 125 54.0
e 296 38 2.0
e 301 69 2.0
e 301 194 24.0
e 301 99 35.0
e 301 232 20.0
e 301 135 7.0
e 301 189 35.0
e 301 11 11.0
e 301 223 49.0
e 305 292 1.0
e 311 33 5.0
e 317 65 24.0
e 317 189 20.0
e 317 268 11.0
e 317 0 73.0
e 319 11 47.0
